pymatgen with grid density = 1154 / number of atoms
0
Monkhorst
4 4 4
