Na8 O4
1.0
   5.4849817358196518    0.0000000000000000    0.0000000000000003
   0.0000000000000009    5.4849817358196518    0.0000000000000003
   0.0000000000000000    0.0000000000000000    5.4849817358196518
Na O
8 4
direct
   0.2500000000000000    0.7500000000000000    0.7500000000000000 Na+
   0.7500000000000000    0.2500000000000000    0.2500000000000000 Na+
   0.2500000000000000    0.2500000000000000    0.2500000000000000 Na+
   0.7500000000000000    0.7500000000000000    0.7500000000000000 Na+
   0.7500000000000000    0.7500000000000000    0.2500000000000000 Na+
   0.2500000000000000    0.2500000000000000    0.7500000000000000 Na+
   0.7500000000000000    0.2500000000000000    0.7500000000000000 Na+
   0.2500000000000000    0.7500000000000000    0.2500000000000000 Na+
   0.0000000000000000    0.0000000000000000    0.0000000000000000 O2-
   0.0000000000000000    0.5000000000000000    0.5000000000000000 O2-
   0.5000000000000000    0.0000000000000000    0.5000000000000000 O2-
   0.5000000000000000    0.5000000000000000    0.0000000000000000 O2-
